(set-info :source  loris-7.ddns.comp.nus.edu.sg/~project/hip/) 
;Variables declarations
(declare-fun v_int_100_1390_primed () Int)
(declare-fun sm_2037 () Int)
(declare-fun n2 () Int)
(declare-fun s2 () Int)
(declare-fun b2 () Int)
(declare-fun x2 () Int)
(declare-fun qs_2041 () Int)
(declare-fun lg_2038 () Int)
(declare-fun flted_22_2039 () Int)
(declare-fun x2_primed () Int)
(declare-fun q_2040 () Int)
(declare-fun x1_primed () Int)
(declare-fun s1 () Int)
(declare-fun b1 () Int)
(declare-fun x1 () Int)
(declare-fun n1 () Int)
;Relations declarations
;Axioms assertions
;Antecedent
(assert (= v_int_100_1390_primed sm_2037))
(assert (= sm_2037 s2))
(assert (= (+ flted_22_2039 1) n2))
(assert (<= s2 qs_2041))
(assert (= lg_2038 b2))
(assert (> x2_primed 0))
(assert (= x2_primed x2))
(assert (= x2_primed 1))
(assert (or (and (and (= lg_2038 qs_2041) (= flted_22_2039 1)) (> q_2040 0)) (and (and (<= qs_2041 lg_2038) (<= 2 flted_22_2039)) (> q_2040 0))))
(assert (not (= x2_primed q_2040)))
(assert (not (= x1 x2_primed)))
(assert (not (= x1 q_2040)))
(assert (= x1_primed x1))
(assert (> x1_primed 0))
(assert (or (and (and (= b1 s1) (= n1 1)) (> x1 0)) (and (and (<= s1 b1) (<= 2 n1)) (> x1 0))))
;Negation of Consequence
(assert (not (= n1 1)))
(check-sat)